benchmarks/bfuzz0/9406201635205308261874137012556210733.smt2
(set-logic QF_FP)
(declare-const x0 (_ FloatingPoint 8 24))
(declare-const x1 (_ FloatingPoint 8 24))
(declare-const x2 (_ FloatingPoint 8 24))
(declare-const x3 (_ FloatingPoint 8 24))
(declare-const x4 (_ FloatingPoint 8 24))
(declare-const x5 (_ FloatingPoint 8 24))
(declare-const x6 (_ FloatingPoint 8 24))
(declare-const x7 (_ FloatingPoint 8 24))
(declare-const x8 (_ FloatingPoint 8 24))
(assert (fp.leq (fp.sub RNE x3 x2) (fp.div RNE x6 x0)))
(assert (fp.lt (fp.add RNE x3 x5) (fp.div RNE x2 x3)))
(assert (fp.leq (fp.div RNE x0 x1) (fp.div RNE x1 x8)))
(assert (fp.eq (fp.neg x5) (fp.mul RNE x2 x1)))
(assert (fp.lt (fp.sub RNE x3 x1) (fp.sub RNE x2 x3)))
(assert (fp.lt (fp.neg x3) (fp.div RNE x5 x2)))
(assert (fp.lt (fp.mul RNE x1 x3) (fp.sub RNE x1 x3)))
(assert (fp.gt (fp.neg x4) (fp.sub RNE x0 x3)))
(assert (fp.leq (fp.div RNE x5 x3) (fp.sub RNE x7 x4)))
(assert (fp.eq (fp.sub RNE x8 x6) (fp.neg x1)))
(check-sat)
