db/data/9406201635205308261874137012556210733.z3.out
sat
-------------------
155.311566685
